NAME: random-21-13367
TYPE: TSP
COMMENT: size=21 seed=13367
DIMENSION: 44
EDGE_WEIGHT_TYPE: EUC_2D
NODE_COORD_SECTION
+0 169 957
-0 169 957
+1 23 702
-1 332 348
+2 981 585
-2 958 434
+3 335 500
-3 271 841
+4 772 549
-4 405 833
+5 941 563
-5 19 880
+6 950 590
-6 170 246
+7 152 261
-7 903 506
+8 228 791
-8 437 922
+9 261 513
-9 684 6
+10 495 573
-10 858 22
+11 919 178
-11 55 622
+12 883 68
-12 852 56
+13 670 370
-13 262 255
+14 67 226
-14 519 978
+15 450 701
-15 536 0
+16 331 557
-16 180 572
+17 480 116
-17 642 329
+18 204 313
-18 48 162
+19 155 869
-19 162 658
+20 150 773
-20 679 173
+21 304 60
-21 408 956
PRECEDENCE_SECTION
+0 -0
+1 -1
+2 -2
+3 -3
+4 -4
+5 -5
+6 -6
+7 -7
+8 -8
+9 -9
+10 -10
+11 -11
+12 -12
+13 -13
+14 -14
+15 -15
+16 -16
+17 -17
+18 -18
+19 -19
+20 -20
+21 -21
EOF
